Problem:    cuori_solitari
Rows:       22
Columns:    104
Non-zeros:  312
Status:     OPTIMAL
Objective:  z = 377 (MAXimum)

   No.   Row name   St   Activity     Lower bound   Upper bound    Marginal
------ ------------ -- ------------- ------------- ------------- -------------
     1 simmetriaU[1]
                    NU             2                           2         < eps
     2 simmetriaU[2]
                    B              2                           2 
     3 simmetriaU[3]
                    B              1                           2 
     4 simmetriaU[4]
                    B              1                           2 
     5 simmetriaU[5]
                    B              1                           2 
     6 simmetriaU[6]
                    B              0                           2 
     7 simmetriaU[7]
                    B              0                           2 
     8 simmetriaU[8]
                    NU             2                           2         < eps
     9 simmetriaU[9]
                    B              2                           2 
    10 simmetriaU[10]
                    B              2                           2 
    11 simmetriaU[11]
                    B              0                           2 
    12 simmetriaU[12]
                    NU             2                           2             1 
    13 simmetriaU[13]
                    B              1                           2 
    14 simmetriad[1]
                    NU             2                           2            23 
    15 simmetriad[2]
                    NU             2                           2            15 
    16 simmetriad[3]
                    NU             2                           2            28 
    17 simmetriad[4]
                    NU             2                           2            16 
    18 simmetriad[5]
                    NU             2                           2            24 
    19 simmetriad[6]
                    NU             2                           2            25 
    20 simmetriad[7]
                    NU             2                           2            20 
    21 simmetriad[8]
                    NU             2                           2            16 
    22 z            B            377                             

   No. Column name  St   Activity     Lower bound   Upper bound    Marginal
------ ------------ -- ------------- ------------- ------------- -------------
     1 prop[1,1]    NL             0             0             1           -10 
     2 prop[1,2]    NL             0             0             1         < eps
     3 prop[1,3]    NL             0             0             1            -5 
     4 prop[1,4]    NU             1             0             1             8 
     5 prop[1,5]    B              0             0             1 
     6 prop[1,6]    NL             0             0             1            -4 
     7 prop[1,7]    NU             1             0             1             2 
     8 prop[1,8]    NL             0             0             1           -12 
     9 prop[2,1]    NL             0             0             1            -8 
    10 prop[2,2]    NL             0             0             1            -1 
    11 prop[2,3]    NL             0             0             1            -8 
    12 prop[2,4]    NL             0             0             1           -12 
    13 prop[2,5]    B              1             0             1 
    14 prop[2,6]    B              0             0             1 
    15 prop[2,7]    NU             1             0             1             2 
    16 prop[2,8]    NL             0             0             1           -11 
    17 prop[3,1]    NL             0             0             1            -4 
    18 prop[3,2]    B              0             0             1 
    19 prop[3,3]    NU             1             0             1             3 
    20 prop[3,4]    NL             0             0             1           -11 
    21 prop[3,5]    NL             0             0             1           -16 
    22 prop[3,6]    NL             0             0             1           -16 
    23 prop[3,7]    B              0             0             1 
    24 prop[3,8]    NL             0             0             1            -4 
    25 prop[4,1]    NL             0             0             1            -2 
    26 prop[4,2]    NU             1             0             1             1 
    27 prop[4,3]    B              0             0             1 
    28 prop[4,4]    NL             0             0             1            -4 
    29 prop[4,5]    NL             0             0             1            -3 
    30 prop[4,6]    NL             0             0             1            -4 
    31 prop[4,7]    NL             0             0             1            -8 
    32 prop[4,8]    NL             0             0             1            -1 
    33 prop[5,1]    B              0             0             1 
    34 prop[5,2]    NU             1             0             1             1 
    35 prop[5,3]    NL             0             0             1            -5 
    36 prop[5,4]    NL             0             0             1            -7 
    37 prop[5,5]    NL             0             0             1            -4 
    38 prop[5,6]    NL             0             0             1            -5 
    39 prop[5,7]    NL             0             0             1            -4 
    40 prop[5,8]    NL             0             0             1            -9 
    41 prop[6,1]    NL             0             0             1           -11 
    42 prop[6,2]    NL             0             0             1            -1 
    43 prop[6,3]    NL             0             0             1           -11 
    44 prop[6,4]    NL             0             0             1            -1 
    45 prop[6,5]    NL             0             0             1            -8 
    46 prop[6,6]    NL             0             0             1            -8 
    47 prop[6,7]    NL             0             0             1            -9 
    48 prop[6,8]    NL             0             0             1           -11 
    49 prop[7,1]    NL             0             0             1           -20 
    50 prop[7,2]    NL             0             0             1           -13 
    51 prop[7,3]    NL             0             0             1           -22 
    52 prop[7,4]    B              0             0             1 
    53 prop[7,5]    NL             0             0             1            -4 
    54 prop[7,6]    NL             0             0             1           -10 
    55 prop[7,7]    NL             0             0             1            -1 
    56 prop[7,8]    NL             0             0             1            -2 
    57 prop[8,1]    NU             1             0             1             1 
    58 prop[8,2]    NL             0             0             1            -5 
    59 prop[8,3]    NL             0             0             1         < eps
    60 prop[8,4]    NL             0             0             1         < eps
    61 prop[8,5]    NU             1             0             1             2 
    62 prop[8,6]    NL             0             0             1            -7 
    63 prop[8,7]    B              0             0             1 
    64 prop[8,8]    NL             0             0             1            -6 
    65 prop[9,1]    NL             0             0             1            -3 
    66 prop[9,2]    NL             0             0             1            -3 
    67 prop[9,3]    NL             0             0             1           -11 
    68 prop[9,4]    NU             1             0             1             1 
    69 prop[9,5]    NL             0             0             1            -5 
    70 prop[9,6]    NL             0             0             1            -7 
    71 prop[9,7]    NL             0             0             1           -10 
    72 prop[9,8]    NU             1             0             1             4 
    73 prop[10,1]   NL             0             0             1           -19 
    74 prop[10,2]   NL             0             0             1           -10 
    75 prop[10,3]   NL             0             0             1           -21 
    76 prop[10,4]   NL             0             0             1            -2 
    77 prop[10,5]   NL             0             0             1           -15 
    78 prop[10,6]   NU             1             0             1             4 
    79 prop[10,7]   NL             0             0             1            -6 
    80 prop[10,8]   NU             1             0             1             2 
    81 prop[11,1]   NL             0             0             1           -18 
    82 prop[11,2]   NL             0             0             1           -10 
    83 prop[11,3]   NL             0             0             1           -21 
    84 prop[11,4]   NL             0             0             1           -10 
    85 prop[11,5]   NL             0             0             1           -14 
    86 prop[11,6]   NL             0             0             1           -16 
    87 prop[11,7]   NL             0             0             1           -11 
    88 prop[11,8]   NL             0             0             1            -7 
    89 prop[12,1]   NL             0             0             1            -8 
    90 prop[12,2]   NL             0             0             1            -8 
    91 prop[12,3]   NU             1             0             1             1 
    92 prop[12,4]   NL             0             0             1            -8 
    93 prop[12,5]   NL             0             0             1            -7 
    94 prop[12,6]   NU             1             0             1             7 
    95 prop[12,7]   B              0             0             1 
    96 prop[12,8]   NL             0             0             1            -4 
    97 prop[13,1]   NU             1             0             1             2 
    98 prop[13,2]   NL             0             0             1            -5 
    99 prop[13,3]   NL             0             0             1         < eps
   100 prop[13,4]   NL             0             0             1            -6 
   101 prop[13,5]   NL             0             0             1            -5 
   102 prop[13,6]   NL             0             0             1           -14 
   103 prop[13,7]   NL             0             0             1            -3 
   104 prop[13,8]   B              0             0             1 

Karush-Kuhn-Tucker optimality conditions:

KKT.PE: max.abs.err = 0.00e+00 on row 0
        max.rel.err = 0.00e+00 on row 0
        High quality

KKT.PB: max.abs.err = 0.00e+00 on row 0
        max.rel.err = 0.00e+00 on row 0
        High quality

KKT.DE: max.abs.err = 0.00e+00 on column 0
        max.rel.err = 0.00e+00 on column 0
        High quality

KKT.DB: max.abs.err = 0.00e+00 on row 0
        max.rel.err = 0.00e+00 on row 0
        High quality

End of output
